158 300 244 241 241 242 216 207 241 241 224 201 233 233 204 240 227 240 205 225 242 215 245 216 244 229 247 205 219 209 230 216 222 248 206 212 240 222 219 204 237 217 230 245 250 234 208 227 249 213 226 240 228 245 230 246 224 201 200 217 210 205 233 232 227 213 244 216 210 237 246 221 203 225 215 203 209 223 204 232 236 204 221 238 250 225 233 223 226 208 240 237 213 247 218 214 209 237 231 244 223 226 215 227 225 204 230 234 228 208 215 238 212 210 200 211 236 233 208 236 241 248 222 228 218 215 217 228 201 248 246 224 248 210 225 222 240 229 231 242 237 220 229 250 205 229 210 215 237 219 200 201 241 248 204 209 212 221 211 238 